; benchmark generated from python API
(set-info :status unknown)
(declare-fun cell_1_1 () Int)
(declare-fun cell_2_1 () Int)
(declare-fun cell_3_1 () Int)
(declare-fun cell_4_1 () Int)
(declare-fun cell_5_1 () Int)
(declare-fun cell_6_1 () Int)
(declare-fun cell_7_1 () Int)
(declare-fun cell_8_1 () Int)
(declare-fun cell_9_1 () Int)
(declare-fun cell_1_2 () Int)
(declare-fun cell_2_2 () Int)
(declare-fun cell_3_2 () Int)
(declare-fun cell_4_2 () Int)
(declare-fun cell_5_2 () Int)
(declare-fun cell_6_2 () Int)
(declare-fun cell_7_2 () Int)
(declare-fun cell_8_2 () Int)
(declare-fun cell_9_2 () Int)
(declare-fun cell_1_3 () Int)
(declare-fun cell_2_3 () Int)
(declare-fun cell_3_3 () Int)
(declare-fun cell_4_3 () Int)
(declare-fun cell_5_3 () Int)
(declare-fun cell_6_3 () Int)
(declare-fun cell_7_3 () Int)
(declare-fun cell_8_3 () Int)
(declare-fun cell_9_3 () Int)
(declare-fun cell_1_4 () Int)
(declare-fun cell_2_4 () Int)
(declare-fun cell_3_4 () Int)
(declare-fun cell_4_4 () Int)
(declare-fun cell_5_4 () Int)
(declare-fun cell_6_4 () Int)
(declare-fun cell_7_4 () Int)
(declare-fun cell_8_4 () Int)
(declare-fun cell_9_4 () Int)
(declare-fun cell_1_5 () Int)
(declare-fun cell_2_5 () Int)
(declare-fun cell_3_5 () Int)
(declare-fun cell_4_5 () Int)
(declare-fun cell_5_5 () Int)
(declare-fun cell_6_5 () Int)
(declare-fun cell_7_5 () Int)
(declare-fun cell_8_5 () Int)
(declare-fun cell_9_5 () Int)
(declare-fun cell_1_6 () Int)
(declare-fun cell_2_6 () Int)
(declare-fun cell_3_6 () Int)
(declare-fun cell_4_6 () Int)
(declare-fun cell_5_6 () Int)
(declare-fun cell_6_6 () Int)
(declare-fun cell_7_6 () Int)
(declare-fun cell_8_6 () Int)
(declare-fun cell_9_6 () Int)
(declare-fun cell_1_7 () Int)
(declare-fun cell_2_7 () Int)
(declare-fun cell_3_7 () Int)
(declare-fun cell_4_7 () Int)
(declare-fun cell_5_7 () Int)
(declare-fun cell_6_7 () Int)
(declare-fun cell_7_7 () Int)
(declare-fun cell_8_7 () Int)
(declare-fun cell_9_7 () Int)
(declare-fun cell_1_8 () Int)
(declare-fun cell_2_8 () Int)
(declare-fun cell_3_8 () Int)
(declare-fun cell_4_8 () Int)
(declare-fun cell_5_8 () Int)
(declare-fun cell_6_8 () Int)
(declare-fun cell_7_8 () Int)
(declare-fun cell_8_8 () Int)
(declare-fun cell_9_8 () Int)
(declare-fun cell_1_9 () Int)
(declare-fun cell_2_9 () Int)
(declare-fun cell_3_9 () Int)
(declare-fun cell_4_9 () Int)
(declare-fun cell_5_9 () Int)
(declare-fun cell_6_9 () Int)
(declare-fun cell_7_9 () Int)
(declare-fun cell_8_9 () Int)
(declare-fun cell_9_9 () Int)
(assert
 (let (($x1584 (= cell_1_1 9)))
 (let (($x4697 (= cell_1_1 8)))
 (let (($x9233 (= cell_1_1 7)))
 (let (($x505 (= cell_1_1 6)))
 (let (($x6642 (= cell_1_1 5)))
 (let (($x3769 (= cell_1_1 4)))
 (let (($x5748 (= cell_1_1 3)))
 (let (($x7189 (= cell_1_1 2)))
 (let (($x2344 (= cell_1_1 1)))
 (or $x2344 $x7189 $x5748 $x3769 $x6642 $x505 $x9233 $x4697 $x1584)))))))))))
(assert
 (let (($x5549 (= cell_2_1 9)))
 (let (($x3590 (= cell_2_1 8)))
 (let (($x9084 (= cell_2_1 7)))
 (let (($x2900 (= cell_2_1 6)))
 (let (($x2823 (= cell_2_1 5)))
 (let (($x968 (= cell_2_1 4)))
 (let (($x9613 (= cell_2_1 3)))
 (let (($x2858 (= cell_2_1 2)))
 (let (($x9891 (= cell_2_1 1)))
 (or $x9891 $x2858 $x9613 $x968 $x2823 $x2900 $x9084 $x3590 $x5549)))))))))))
(assert
 (let (($x7282 (= cell_3_1 9)))
 (let (($x7812 (= cell_3_1 8)))
 (let (($x4038 (= cell_3_1 7)))
 (let (($x7262 (= cell_3_1 6)))
 (let (($x9359 (= cell_3_1 5)))
 (let (($x9217 (= cell_3_1 4)))
 (let (($x4740 (= cell_3_1 3)))
 (let (($x4951 (= cell_3_1 2)))
 (let (($x5906 (= cell_3_1 1)))
 (or $x5906 $x4951 $x4740 $x9217 $x9359 $x7262 $x4038 $x7812 $x7282)))))))))))
(assert
 (let (($x2088 (= cell_4_1 9)))
 (let (($x7995 (= cell_4_1 8)))
 (let (($x1106 (= cell_4_1 7)))
 (let (($x348 (= cell_4_1 6)))
 (let (($x4610 (= cell_4_1 5)))
 (let (($x4043 (= cell_4_1 4)))
 (let (($x1880 (= cell_4_1 3)))
 (let (($x6381 (= cell_4_1 2)))
 (let (($x3163 (= cell_4_1 1)))
 (or $x3163 $x6381 $x1880 $x4043 $x4610 $x348 $x1106 $x7995 $x2088)))))))))))
(assert
 (let (($x9968 (= cell_5_1 9)))
 (let (($x9231 (= cell_5_1 8)))
 (let (($x9123 (= cell_5_1 7)))
 (let (($x3524 (= cell_5_1 6)))
 (let (($x2451 (= cell_5_1 5)))
 (let (($x8802 (= cell_5_1 4)))
 (let (($x1046 (= cell_5_1 3)))
 (let (($x921 (= cell_5_1 2)))
 (let (($x8628 (= cell_5_1 1)))
 (or $x8628 $x921 $x1046 $x8802 $x2451 $x3524 $x9123 $x9231 $x9968)))))))))))
(assert
 (let (($x2252 (= cell_6_1 9)))
 (let (($x7945 (= cell_6_1 8)))
 (let (($x6229 (= cell_6_1 7)))
 (let (($x3731 (= cell_6_1 6)))
 (let (($x9245 (= cell_6_1 5)))
 (let (($x9249 (= cell_6_1 4)))
 (let (($x9970 (= cell_6_1 3)))
 (let (($x7879 (= cell_6_1 2)))
 (let (($x5351 (= cell_6_1 1)))
 (or $x5351 $x7879 $x9970 $x9249 $x9245 $x3731 $x6229 $x7945 $x2252)))))))))))
(assert
 (let (($x9253 (= cell_7_1 9)))
 (let (($x1053 (= cell_7_1 8)))
 (let (($x6940 (= cell_7_1 7)))
 (let (($x9368 (= cell_7_1 6)))
 (let (($x9694 (= cell_7_1 5)))
 (let (($x2846 (= cell_7_1 4)))
 (let (($x10162 (= cell_7_1 3)))
 (let (($x8236 (= cell_7_1 2)))
 (let (($x5603 (= cell_7_1 1)))
 (or $x5603 $x8236 $x10162 $x2846 $x9694 $x9368 $x6940 $x1053 $x9253)))))))))))
(assert
 (let (($x9810 (= cell_8_1 9)))
 (let (($x9479 (= cell_8_1 8)))
 (let (($x5442 (= cell_8_1 7)))
 (let (($x1496 (= cell_8_1 6)))
 (let (($x2489 (= cell_8_1 5)))
 (let (($x8045 (= cell_8_1 4)))
 (let (($x3202 (= cell_8_1 3)))
 (let (($x3336 (= cell_8_1 2)))
 (let (($x2287 (= cell_8_1 1)))
 (or $x2287 $x3336 $x3202 $x8045 $x2489 $x1496 $x5442 $x9479 $x9810)))))))))))
(assert
 (let (($x532 (= cell_9_1 9)))
 (let (($x4670 (= cell_9_1 8)))
 (let (($x2426 (= cell_9_1 7)))
 (let (($x7020 (= cell_9_1 6)))
 (let (($x9036 (= cell_9_1 5)))
 (let (($x3840 (= cell_9_1 4)))
 (let (($x8929 (= cell_9_1 3)))
 (let (($x2751 (= cell_9_1 2)))
 (let (($x814 (= cell_9_1 1)))
 (or $x814 $x2751 $x8929 $x3840 $x9036 $x7020 $x2426 $x4670 $x532)))))))))))
(assert
 (let (($x2872 (= cell_1_2 9)))
 (let (($x8264 (= cell_1_2 8)))
 (let (($x9461 (= cell_1_2 7)))
 (let (($x9230 (= cell_1_2 6)))
 (let (($x7408 (= cell_1_2 5)))
 (let (($x187 (= cell_1_2 4)))
 (let (($x9007 (= cell_1_2 3)))
 (let (($x859 (= cell_1_2 2)))
 (let (($x8485 (= cell_1_2 1)))
 (or $x8485 $x859 $x9007 $x187 $x7408 $x9230 $x9461 $x8264 $x2872)))))))))))
(assert
 (let (($x6009 (= cell_2_2 9)))
 (let (($x527 (= cell_2_2 8)))
 (let (($x1115 (= cell_2_2 7)))
 (let (($x9024 (= cell_2_2 6)))
 (let (($x380 (= cell_2_2 5)))
 (let (($x5307 (= cell_2_2 4)))
 (let (($x754 (= cell_2_2 3)))
 (let (($x8746 (= cell_2_2 2)))
 (let (($x8619 (= cell_2_2 1)))
 (or $x8619 $x8746 $x754 $x5307 $x380 $x9024 $x1115 $x527 $x6009)))))))))))
(assert
 (let (($x5724 (= cell_3_2 9)))
 (let (($x9650 (= cell_3_2 8)))
 (let (($x5366 (= cell_3_2 7)))
 (let (($x1057 (= cell_3_2 6)))
 (let (($x10000 (= cell_3_2 5)))
 (let (($x4932 (= cell_3_2 4)))
 (let (($x7256 (= cell_3_2 3)))
 (let (($x1877 (= cell_3_2 2)))
 (let (($x1762 (= cell_3_2 1)))
 (or $x1762 $x1877 $x7256 $x4932 $x10000 $x1057 $x5366 $x9650 $x5724)))))))))))
(assert
 (let (($x2424 (= cell_4_2 9)))
 (let (($x8978 (= cell_4_2 8)))
 (let (($x8411 (= cell_4_2 7)))
 (let (($x9801 (= cell_4_2 6)))
 (let (($x6250 (= cell_4_2 5)))
 (let (($x1844 (= cell_4_2 4)))
 (let (($x9830 (= cell_4_2 3)))
 (let (($x6920 (= cell_4_2 2)))
 (let (($x5652 (= cell_4_2 1)))
 (or $x5652 $x6920 $x9830 $x1844 $x6250 $x9801 $x8411 $x8978 $x2424)))))))))))
(assert
 (let (($x8338 (= cell_5_2 9)))
 (let (($x6909 (= cell_5_2 8)))
 (let (($x1518 (= cell_5_2 7)))
 (let (($x8953 (= cell_5_2 6)))
 (let (($x1483 (= cell_5_2 5)))
 (let (($x8552 (= cell_5_2 4)))
 (let (($x336 (= cell_5_2 3)))
 (let (($x4305 (= cell_5_2 2)))
 (let (($x1157 (= cell_5_2 1)))
 (or $x1157 $x4305 $x336 $x8552 $x1483 $x8953 $x1518 $x6909 $x8338)))))))))))
(assert
 (let (($x7286 (= cell_6_2 9)))
 (let (($x2576 (= cell_6_2 8)))
 (let (($x3079 (= cell_6_2 7)))
 (let (($x1951 (= cell_6_2 6)))
 (let (($x2908 (= cell_6_2 5)))
 (let (($x1267 (= cell_6_2 4)))
 (let (($x635 (= cell_6_2 3)))
 (let (($x2683 (= cell_6_2 2)))
 (let (($x5535 (= cell_6_2 1)))
 (or $x5535 $x2683 $x635 $x1267 $x2908 $x1951 $x3079 $x2576 $x7286)))))))))))
(assert
 (let (($x5893 (= cell_7_2 9)))
 (let (($x2970 (= cell_7_2 8)))
 (let (($x5776 (= cell_7_2 7)))
 (let (($x4846 (= cell_7_2 6)))
 (let (($x9423 (= cell_7_2 5)))
 (let (($x8330 (= cell_7_2 4)))
 (let (($x1425 (= cell_7_2 3)))
 (let (($x501 (= cell_7_2 2)))
 (let (($x2119 (= cell_7_2 1)))
 (or $x2119 $x501 $x1425 $x8330 $x9423 $x4846 $x5776 $x2970 $x5893)))))))))))
(assert
 (let (($x9304 (= cell_8_2 9)))
 (let (($x1691 (= cell_8_2 8)))
 (let (($x360 (= cell_8_2 7)))
 (let (($x5973 (= cell_8_2 6)))
 (let (($x3715 (= cell_8_2 5)))
 (let (($x782 (= cell_8_2 4)))
 (let (($x7250 (= cell_8_2 3)))
 (let (($x8023 (= cell_8_2 2)))
 (let (($x8675 (= cell_8_2 1)))
 (or $x8675 $x8023 $x7250 $x782 $x3715 $x5973 $x360 $x1691 $x9304)))))))))))
(assert
 (let (($x6756 (= cell_9_2 9)))
 (let (($x7078 (= cell_9_2 8)))
 (let (($x1093 (= cell_9_2 7)))
 (let (($x3546 (= cell_9_2 6)))
 (let (($x9619 (= cell_9_2 5)))
 (let (($x3382 (= cell_9_2 4)))
 (let (($x292 (= cell_9_2 3)))
 (let (($x9211 (= cell_9_2 2)))
 (let (($x8652 (= cell_9_2 1)))
 (or $x8652 $x9211 $x292 $x3382 $x9619 $x3546 $x1093 $x7078 $x6756)))))))))))
(assert
 (let (($x10205 (= cell_1_3 9)))
 (let (($x6732 (= cell_1_3 8)))
 (let (($x4064 (= cell_1_3 7)))
 (let (($x1883 (= cell_1_3 6)))
 (let (($x4388 (= cell_1_3 5)))
 (let (($x3490 (= cell_1_3 4)))
 (let (($x7924 (= cell_1_3 3)))
 (let (($x6960 (= cell_1_3 2)))
 (let (($x8898 (= cell_1_3 1)))
 (or $x8898 $x6960 $x7924 $x3490 $x4388 $x1883 $x4064 $x6732 $x10205)))))))))))
(assert
 (let (($x2273 (= cell_2_3 9)))
 (let (($x4729 (= cell_2_3 8)))
 (let (($x6805 (= cell_2_3 7)))
 (let (($x7079 (= cell_2_3 6)))
 (let (($x8797 (= cell_2_3 5)))
 (let (($x1545 (= cell_2_3 4)))
 (let (($x8126 (= cell_2_3 3)))
 (let (($x649 (= cell_2_3 2)))
 (let (($x2907 (= cell_2_3 1)))
 (or $x2907 $x649 $x8126 $x1545 $x8797 $x7079 $x6805 $x4729 $x2273)))))))))))
(assert
 (let (($x8323 (= cell_3_3 9)))
 (let (($x3440 (= cell_3_3 8)))
 (let (($x8049 (= cell_3_3 7)))
 (let (($x4111 (= cell_3_3 6)))
 (let (($x6284 (= cell_3_3 5)))
 (let (($x1225 (= cell_3_3 4)))
 (let (($x7321 (= cell_3_3 3)))
 (let (($x1731 (= cell_3_3 2)))
 (let (($x2070 (= cell_3_3 1)))
 (or $x2070 $x1731 $x7321 $x1225 $x6284 $x4111 $x8049 $x3440 $x8323)))))))))))
(assert
 (let (($x4723 (= cell_4_3 9)))
 (let (($x7614 (= cell_4_3 8)))
 (let (($x6547 (= cell_4_3 7)))
 (let (($x5342 (= cell_4_3 6)))
 (let (($x685 (= cell_4_3 5)))
 (let (($x9355 (= cell_4_3 4)))
 (let (($x6262 (= cell_4_3 3)))
 (let (($x9046 (= cell_4_3 2)))
 (let (($x1507 (= cell_4_3 1)))
 (or $x1507 $x9046 $x6262 $x9355 $x685 $x5342 $x6547 $x7614 $x4723)))))))))))
(assert
 (let (($x3631 (= cell_5_3 9)))
 (let (($x8841 (= cell_5_3 8)))
 (let (($x5496 (= cell_5_3 7)))
 (let (($x8092 (= cell_5_3 6)))
 (let (($x5753 (= cell_5_3 5)))
 (let (($x1451 (= cell_5_3 4)))
 (let (($x156 (= cell_5_3 3)))
 (let (($x1160 (= cell_5_3 2)))
 (let (($x1873 (= cell_5_3 1)))
 (or $x1873 $x1160 $x156 $x1451 $x5753 $x8092 $x5496 $x8841 $x3631)))))))))))
(assert
 (let (($x7028 (= cell_6_3 9)))
 (let (($x4746 (= cell_6_3 8)))
 (let (($x126 (= cell_6_3 7)))
 (let (($x9962 (= cell_6_3 6)))
 (let (($x9812 (= cell_6_3 5)))
 (let (($x9237 (= cell_6_3 4)))
 (let (($x9912 (= cell_6_3 3)))
 (let (($x9867 (= cell_6_3 2)))
 (let (($x3866 (= cell_6_3 1)))
 (or $x3866 $x9867 $x9912 $x9237 $x9812 $x9962 $x126 $x4746 $x7028)))))))))))
(assert
 (let (($x4905 (= cell_7_3 9)))
 (let (($x8644 (= cell_7_3 8)))
 (let (($x4059 (= cell_7_3 7)))
 (let (($x8783 (= cell_7_3 6)))
 (let (($x7065 (= cell_7_3 5)))
 (let (($x4755 (= cell_7_3 4)))
 (let (($x3309 (= cell_7_3 3)))
 (let (($x3300 (= cell_7_3 2)))
 (let (($x3696 (= cell_7_3 1)))
 (or $x3696 $x3300 $x3309 $x4755 $x7065 $x8783 $x4059 $x8644 $x4905)))))))))))
(assert
 (let (($x9080 (= cell_8_3 9)))
 (let (($x10046 (= cell_8_3 8)))
 (let (($x4098 (= cell_8_3 7)))
 (let (($x3338 (= cell_8_3 6)))
 (let (($x1062 (= cell_8_3 5)))
 (let (($x8631 (= cell_8_3 4)))
 (let (($x6649 (= cell_8_3 3)))
 (let (($x2639 (= cell_8_3 2)))
 (let (($x2547 (= cell_8_3 1)))
 (or $x2547 $x2639 $x6649 $x8631 $x1062 $x3338 $x4098 $x10046 $x9080)))))))))))
(assert
 (let (($x4053 (= cell_9_3 9)))
 (let (($x5670 (= cell_9_3 8)))
 (let (($x2228 (= cell_9_3 7)))
 (let (($x338 (= cell_9_3 6)))
 (let (($x1837 (= cell_9_3 5)))
 (let (($x248 (= cell_9_3 4)))
 (let (($x8772 (= cell_9_3 3)))
 (let (($x6694 (= cell_9_3 2)))
 (let (($x3993 (= cell_9_3 1)))
 (or $x3993 $x6694 $x8772 $x248 $x1837 $x338 $x2228 $x5670 $x4053)))))))))))
(assert
 (let (($x7454 (= cell_1_4 9)))
 (let (($x834 (= cell_1_4 8)))
 (let (($x4028 (= cell_1_4 7)))
 (let (($x329 (= cell_1_4 6)))
 (let (($x5780 (= cell_1_4 5)))
 (let (($x10185 (= cell_1_4 4)))
 (let (($x3560 (= cell_1_4 3)))
 (let (($x8469 (= cell_1_4 2)))
 (let (($x3151 (= cell_1_4 1)))
 (or $x3151 $x8469 $x3560 $x10185 $x5780 $x329 $x4028 $x834 $x7454)))))))))))
(assert
 (let (($x6007 (= cell_2_4 9)))
 (let (($x9486 (= cell_2_4 8)))
 (let (($x80 (= cell_2_4 7)))
 (let (($x8379 (= cell_2_4 6)))
 (let (($x2382 (= cell_2_4 5)))
 (let (($x7796 (= cell_2_4 4)))
 (let (($x2893 (= cell_2_4 3)))
 (let (($x2960 (= cell_2_4 2)))
 (let (($x747 (= cell_2_4 1)))
 (or $x747 $x2960 $x2893 $x7796 $x2382 $x8379 $x80 $x9486 $x6007)))))))))))
(assert
 (let (($x3179 (= cell_3_4 9)))
 (let (($x9971 (= cell_3_4 8)))
 (let (($x6429 (= cell_3_4 7)))
 (let (($x3228 (= cell_3_4 6)))
 (let (($x6331 (= cell_3_4 5)))
 (let (($x3680 (= cell_3_4 4)))
 (let (($x8692 (= cell_3_4 3)))
 (let (($x6047 (= cell_3_4 2)))
 (let (($x1994 (= cell_3_4 1)))
 (or $x1994 $x6047 $x8692 $x3680 $x6331 $x3228 $x6429 $x9971 $x3179)))))))))))
(assert
 (let (($x8185 (= cell_4_4 9)))
 (let (($x7445 (= cell_4_4 8)))
 (let (($x2971 (= cell_4_4 7)))
 (let (($x6002 (= cell_4_4 6)))
 (let (($x7695 (= cell_4_4 5)))
 (let (($x5475 (= cell_4_4 4)))
 (let (($x3087 (= cell_4_4 3)))
 (let (($x15 (= cell_4_4 2)))
 (let (($x7242 (= cell_4_4 1)))
 (or $x7242 $x15 $x3087 $x5475 $x7695 $x6002 $x2971 $x7445 $x8185)))))))))))
(assert
 (let (($x699 (= cell_5_4 9)))
 (let (($x1924 (= cell_5_4 8)))
 (let (($x1144 (= cell_5_4 7)))
 (let (($x8351 (= cell_5_4 6)))
 (let (($x4576 (= cell_5_4 5)))
 (let (($x7871 (= cell_5_4 4)))
 (let (($x2625 (= cell_5_4 3)))
 (let (($x651 (= cell_5_4 2)))
 (let (($x5515 (= cell_5_4 1)))
 (or $x5515 $x651 $x2625 $x7871 $x4576 $x8351 $x1144 $x1924 $x699)))))))))))
(assert
 (let (($x6010 (= cell_6_4 9)))
 (let (($x7589 (= cell_6_4 8)))
 (let (($x4767 (= cell_6_4 7)))
 (let (($x7319 (= cell_6_4 6)))
 (let (($x9905 (= cell_6_4 5)))
 (let (($x608 (= cell_6_4 4)))
 (let (($x8484 (= cell_6_4 3)))
 (let (($x10235 (= cell_6_4 2)))
 (let (($x6274 (= cell_6_4 1)))
 (or $x6274 $x10235 $x8484 $x608 $x9905 $x7319 $x4767 $x7589 $x6010)))))))))))
(assert
 (let (($x1328 (= cell_7_4 9)))
 (let (($x3612 (= cell_7_4 8)))
 (let (($x10170 (= cell_7_4 7)))
 (let (($x7728 (= cell_7_4 6)))
 (let (($x8028 (= cell_7_4 5)))
 (let (($x4354 (= cell_7_4 4)))
 (let (($x9380 (= cell_7_4 3)))
 (let (($x8295 (= cell_7_4 2)))
 (let (($x4764 (= cell_7_4 1)))
 (or $x4764 $x8295 $x9380 $x4354 $x8028 $x7728 $x10170 $x3612 $x1328)))))))))))
(assert
 (let (($x4373 (= cell_8_4 9)))
 (let (($x724 (= cell_8_4 8)))
 (let (($x7492 (= cell_8_4 7)))
 (let (($x5530 (= cell_8_4 6)))
 (let (($x10009 (= cell_8_4 5)))
 (let (($x4991 (= cell_8_4 4)))
 (let (($x7618 (= cell_8_4 3)))
 (let (($x4123 (= cell_8_4 2)))
 (let (($x5185 (= cell_8_4 1)))
 (or $x5185 $x4123 $x7618 $x4991 $x10009 $x5530 $x7492 $x724 $x4373)))))))))))
(assert
 (let (($x3068 (= cell_9_4 9)))
 (let (($x10175 (= cell_9_4 8)))
 (let (($x5436 (= cell_9_4 7)))
 (let (($x5584 (= cell_9_4 6)))
 (let (($x4972 (= cell_9_4 5)))
 (let (($x683 (= cell_9_4 4)))
 (let (($x5813 (= cell_9_4 3)))
 (let (($x6725 (= cell_9_4 2)))
 (let (($x9605 (= cell_9_4 1)))
 (or $x9605 $x6725 $x5813 $x683 $x4972 $x5584 $x5436 $x10175 $x3068)))))))))))
(assert
 (let (($x5667 (= cell_1_5 9)))
 (let (($x9392 (= cell_1_5 8)))
 (let (($x512 (= cell_1_5 7)))
 (let (($x7576 (= cell_1_5 6)))
 (let (($x4658 (= cell_1_5 5)))
 (let (($x1040 (= cell_1_5 4)))
 (let (($x3585 (= cell_1_5 3)))
 (let (($x2569 (= cell_1_5 2)))
 (let (($x5626 (= cell_1_5 1)))
 (or $x5626 $x2569 $x3585 $x1040 $x4658 $x7576 $x512 $x9392 $x5667)))))))))))
(assert
 (let (($x5727 (= cell_2_5 9)))
 (let (($x3837 (= cell_2_5 8)))
 (let (($x2808 (= cell_2_5 7)))
 (let (($x5998 (= cell_2_5 6)))
 (let (($x8061 (= cell_2_5 5)))
 (let (($x7265 (= cell_2_5 4)))
 (let (($x1064 (= cell_2_5 3)))
 (let (($x10039 (= cell_2_5 2)))
 (let (($x5188 (= cell_2_5 1)))
 (or $x5188 $x10039 $x1064 $x7265 $x8061 $x5998 $x2808 $x3837 $x5727)))))))))))
(assert
 (let (($x2300 (= cell_3_5 9)))
 (let (($x643 (= cell_3_5 8)))
 (let (($x3484 (= cell_3_5 7)))
 (let (($x665 (= cell_3_5 6)))
 (let (($x4530 (= cell_3_5 5)))
 (let (($x6697 (= cell_3_5 4)))
 (let (($x8198 (= cell_3_5 3)))
 (let (($x9585 (= cell_3_5 2)))
 (let (($x1489 (= cell_3_5 1)))
 (or $x1489 $x9585 $x8198 $x6697 $x4530 $x665 $x3484 $x643 $x2300)))))))))))
(assert
 (let (($x3103 (= cell_4_5 9)))
 (let (($x52 (= cell_4_5 8)))
 (let (($x6577 (= cell_4_5 7)))
 (let (($x6223 (= cell_4_5 6)))
 (let (($x2646 (= cell_4_5 5)))
 (let (($x341 (= cell_4_5 4)))
 (let (($x8500 (= cell_4_5 3)))
 (let (($x1168 (= cell_4_5 2)))
 (let (($x4217 (= cell_4_5 1)))
 (or $x4217 $x1168 $x8500 $x341 $x2646 $x6223 $x6577 $x52 $x3103)))))))))))
(assert
 (let (($x3190 (= cell_5_5 9)))
 (let (($x526 (= cell_5_5 8)))
 (let (($x3817 (= cell_5_5 7)))
 (let (($x3938 (= cell_5_5 6)))
 (let (($x3697 (= cell_5_5 5)))
 (let (($x4929 (= cell_5_5 4)))
 (let (($x2052 (= cell_5_5 3)))
 (let (($x2184 (= cell_5_5 2)))
 (let (($x5734 (= cell_5_5 1)))
 (or $x5734 $x2184 $x2052 $x4929 $x3697 $x3938 $x3817 $x526 $x3190)))))))))))
(assert
 (let (($x5461 (= cell_6_5 9)))
 (let (($x6997 (= cell_6_5 8)))
 (let (($x8621 (= cell_6_5 7)))
 (let (($x9998 (= cell_6_5 6)))
 (let (($x2094 (= cell_6_5 5)))
 (let (($x8906 (= cell_6_5 4)))
 (let (($x2255 (= cell_6_5 3)))
 (let (($x8951 (= cell_6_5 2)))
 (let (($x8106 (= cell_6_5 1)))
 (or $x8106 $x8951 $x2255 $x8906 $x2094 $x9998 $x8621 $x6997 $x5461)))))))))))
(assert
 (let (($x3186 (= cell_7_5 9)))
 (let (($x1051 (= cell_7_5 8)))
 (let (($x1832 (= cell_7_5 7)))
 (let (($x7676 (= cell_7_5 6)))
 (let (($x6893 (= cell_7_5 5)))
 (let (($x3607 (= cell_7_5 4)))
 (let (($x6746 (= cell_7_5 3)))
 (let (($x6882 (= cell_7_5 2)))
 (let (($x6188 (= cell_7_5 1)))
 (or $x6188 $x6882 $x6746 $x3607 $x6893 $x7676 $x1832 $x1051 $x3186)))))))))))
(assert
 (let (($x2009 (= cell_8_5 9)))
 (let (($x6613 (= cell_8_5 8)))
 (let (($x8281 (= cell_8_5 7)))
 (let (($x741 (= cell_8_5 6)))
 (let (($x2973 (= cell_8_5 5)))
 (let (($x47 (= cell_8_5 4)))
 (let (($x2460 (= cell_8_5 3)))
 (let (($x6410 (= cell_8_5 2)))
 (let (($x3719 (= cell_8_5 1)))
 (or $x3719 $x6410 $x2460 $x47 $x2973 $x741 $x8281 $x6613 $x2009)))))))))))
(assert
 (let (($x1754 (= cell_9_5 9)))
 (let (($x8077 (= cell_9_5 8)))
 (let (($x9182 (= cell_9_5 7)))
 (let (($x2694 (= cell_9_5 6)))
 (let (($x6431 (= cell_9_5 5)))
 (let (($x4449 (= cell_9_5 4)))
 (let (($x7194 (= cell_9_5 3)))
 (let (($x1440 (= cell_9_5 2)))
 (let (($x8947 (= cell_9_5 1)))
 (or $x8947 $x1440 $x7194 $x4449 $x6431 $x2694 $x9182 $x8077 $x1754)))))))))))
(assert
 (let (($x9099 (= cell_1_6 9)))
 (let (($x10239 (= cell_1_6 8)))
 (let (($x4690 (= cell_1_6 7)))
 (let (($x4897 (= cell_1_6 6)))
 (let (($x2876 (= cell_1_6 5)))
 (let (($x3875 (= cell_1_6 4)))
 (let (($x4918 (= cell_1_6 3)))
 (let (($x5659 (= cell_1_6 2)))
 (let (($x5340 (= cell_1_6 1)))
 (or $x5340 $x5659 $x4918 $x3875 $x2876 $x4897 $x4690 $x10239 $x9099)))))))))))
(assert
 (let (($x9093 (= cell_2_6 9)))
 (let (($x1202 (= cell_2_6 8)))
 (let (($x9764 (= cell_2_6 7)))
 (let (($x8678 (= cell_2_6 6)))
 (let (($x9673 (= cell_2_6 5)))
 (let (($x5583 (= cell_2_6 4)))
 (let (($x9920 (= cell_2_6 3)))
 (let (($x3322 (= cell_2_6 2)))
 (let (($x1015 (= cell_2_6 1)))
 (or $x1015 $x3322 $x9920 $x5583 $x9673 $x8678 $x9764 $x1202 $x9093)))))))))))
(assert
 (let (($x8968 (= cell_3_6 9)))
 (let (($x1132 (= cell_3_6 8)))
 (let (($x7054 (= cell_3_6 7)))
 (let (($x6586 (= cell_3_6 6)))
 (let (($x5306 (= cell_3_6 5)))
 (let (($x7145 (= cell_3_6 4)))
 (let (($x6024 (= cell_3_6 3)))
 (let (($x1223 (= cell_3_6 2)))
 (let (($x8382 (= cell_3_6 1)))
 (or $x8382 $x1223 $x6024 $x7145 $x5306 $x6586 $x7054 $x1132 $x8968)))))))))))
(assert
 (let (($x5569 (= cell_4_6 9)))
 (let (($x8999 (= cell_4_6 8)))
 (let (($x5011 (= cell_4_6 7)))
 (let (($x2007 (= cell_4_6 6)))
 (let (($x1962 (= cell_4_6 5)))
 (let (($x5197 (= cell_4_6 4)))
 (let (($x6021 (= cell_4_6 3)))
 (let (($x8570 (= cell_4_6 2)))
 (let (($x8752 (= cell_4_6 1)))
 (or $x8752 $x8570 $x6021 $x5197 $x1962 $x2007 $x5011 $x8999 $x5569)))))))))))
(assert
 (let (($x8850 (= cell_5_6 9)))
 (let (($x7574 (= cell_5_6 8)))
 (let (($x8483 (= cell_5_6 7)))
 (let (($x2497 (= cell_5_6 6)))
 (let (($x6683 (= cell_5_6 5)))
 (let (($x4208 (= cell_5_6 4)))
 (let (($x9718 (= cell_5_6 3)))
 (let (($x1606 (= cell_5_6 2)))
 (let (($x7314 (= cell_5_6 1)))
 (or $x7314 $x1606 $x9718 $x4208 $x6683 $x2497 $x8483 $x7574 $x8850)))))))))))
(assert
 (let (($x8066 (= cell_6_6 9)))
 (let (($x5393 (= cell_6_6 8)))
 (let (($x6346 (= cell_6_6 7)))
 (let (($x9328 (= cell_6_6 6)))
 (let (($x3771 (= cell_6_6 5)))
 (let (($x1382 (= cell_6_6 4)))
 (let (($x32 (= cell_6_6 3)))
 (let (($x8988 (= cell_6_6 2)))
 (let (($x8358 (= cell_6_6 1)))
 (or $x8358 $x8988 $x32 $x1382 $x3771 $x9328 $x6346 $x5393 $x8066)))))))))))
(assert
 (let (($x8001 (= cell_7_6 9)))
 (let (($x2502 (= cell_7_6 8)))
 (let (($x5312 (= cell_7_6 7)))
 (let (($x4219 (= cell_7_6 6)))
 (let (($x5066 (= cell_7_6 5)))
 (let (($x5931 (= cell_7_6 4)))
 (let (($x4131 (= cell_7_6 3)))
 (let (($x3062 (= cell_7_6 2)))
 (let (($x3757 (= cell_7_6 1)))
 (or $x3757 $x3062 $x4131 $x5931 $x5066 $x4219 $x5312 $x2502 $x8001)))))))))))
(assert
 (let (($x6158 (= cell_8_6 9)))
 (let (($x4473 (= cell_8_6 8)))
 (let (($x9523 (= cell_8_6 7)))
 (let (($x4370 (= cell_8_6 6)))
 (let (($x3513 (= cell_8_6 5)))
 (let (($x4221 (= cell_8_6 4)))
 (let (($x5315 (= cell_8_6 3)))
 (let (($x8599 (= cell_8_6 2)))
 (let (($x4090 (= cell_8_6 1)))
 (or $x4090 $x8599 $x5315 $x4221 $x3513 $x4370 $x9523 $x4473 $x6158)))))))))))
(assert
 (let (($x8115 (= cell_9_6 9)))
 (let (($x9965 (= cell_9_6 8)))
 (let (($x6809 (= cell_9_6 7)))
 (let (($x466 (= cell_9_6 6)))
 (let (($x3886 (= cell_9_6 5)))
 (let (($x7707 (= cell_9_6 4)))
 (let (($x2984 (= cell_9_6 3)))
 (let (($x7580 (= cell_9_6 2)))
 (let (($x3131 (= cell_9_6 1)))
 (or $x3131 $x7580 $x2984 $x7707 $x3886 $x466 $x6809 $x9965 $x8115)))))))))))
(assert
 (let (($x8798 (= cell_1_7 9)))
 (let (($x4892 (= cell_1_7 8)))
 (let (($x6614 (= cell_1_7 7)))
 (let (($x8142 (= cell_1_7 6)))
 (let (($x5490 (= cell_1_7 5)))
 (let (($x5957 (= cell_1_7 4)))
 (let (($x3834 (= cell_1_7 3)))
 (let (($x9218 (= cell_1_7 2)))
 (let (($x1416 (= cell_1_7 1)))
 (or $x1416 $x9218 $x3834 $x5957 $x5490 $x8142 $x6614 $x4892 $x8798)))))))))))
(assert
 (let (($x6518 (= cell_2_7 9)))
 (let (($x6666 (= cell_2_7 8)))
 (let (($x6015 (= cell_2_7 7)))
 (let (($x8986 (= cell_2_7 6)))
 (let (($x6937 (= cell_2_7 5)))
 (let (($x4796 (= cell_2_7 4)))
 (let (($x1888 (= cell_2_7 3)))
 (let (($x9156 (= cell_2_7 2)))
 (let (($x5405 (= cell_2_7 1)))
 (or $x5405 $x9156 $x1888 $x4796 $x6937 $x8986 $x6015 $x6666 $x6518)))))))))))
(assert
 (let (($x4384 (= cell_3_7 9)))
 (let (($x5050 (= cell_3_7 8)))
 (let (($x3090 (= cell_3_7 7)))
 (let (($x9932 (= cell_3_7 6)))
 (let (($x2777 (= cell_3_7 5)))
 (let (($x2860 (= cell_3_7 4)))
 (let (($x8813 (= cell_3_7 3)))
 (let (($x5057 (= cell_3_7 2)))
 (let (($x1643 (= cell_3_7 1)))
 (or $x1643 $x5057 $x8813 $x2860 $x2777 $x9932 $x3090 $x5050 $x4384)))))))))))
(assert
 (let (($x5239 (= cell_4_7 9)))
 (let (($x1516 (= cell_4_7 8)))
 (let (($x508 (= cell_4_7 7)))
 (let (($x4194 (= cell_4_7 6)))
 (let (($x8138 (= cell_4_7 5)))
 (let (($x8534 (= cell_4_7 4)))
 (let (($x4462 (= cell_4_7 3)))
 (let (($x7401 (= cell_4_7 2)))
 (let (($x7976 (= cell_4_7 1)))
 (or $x7976 $x7401 $x4462 $x8534 $x8138 $x4194 $x508 $x1516 $x5239)))))))))))
(assert
 (let (($x4291 (= cell_5_7 9)))
 (let (($x7925 (= cell_5_7 8)))
 (let (($x2654 (= cell_5_7 7)))
 (let (($x4185 (= cell_5_7 6)))
 (let (($x4878 (= cell_5_7 5)))
 (let (($x9807 (= cell_5_7 4)))
 (let (($x949 (= cell_5_7 3)))
 (let (($x7843 (= cell_5_7 2)))
 (let (($x2065 (= cell_5_7 1)))
 (or $x2065 $x7843 $x949 $x9807 $x4878 $x4185 $x2654 $x7925 $x4291)))))))))))
(assert
 (let (($x9665 (= cell_6_7 9)))
 (let (($x8819 (= cell_6_7 8)))
 (let (($x9560 (= cell_6_7 7)))
 (let (($x7475 (= cell_6_7 6)))
 (let (($x7464 (= cell_6_7 5)))
 (let (($x6560 (= cell_6_7 4)))
 (let (($x3514 (= cell_6_7 3)))
 (let (($x7748 (= cell_6_7 2)))
 (let (($x262 (= cell_6_7 1)))
 (or $x262 $x7748 $x3514 $x6560 $x7464 $x7475 $x9560 $x8819 $x9665)))))))))))
(assert
 (let (($x9287 (= cell_7_7 9)))
 (let (($x7260 (= cell_7_7 8)))
 (let (($x8499 (= cell_7_7 7)))
 (let (($x6645 (= cell_7_7 6)))
 (let (($x8094 (= cell_7_7 5)))
 (let (($x6437 (= cell_7_7 4)))
 (let (($x5610 (= cell_7_7 3)))
 (let (($x6546 (= cell_7_7 2)))
 (let (($x8041 (= cell_7_7 1)))
 (or $x8041 $x6546 $x5610 $x6437 $x8094 $x6645 $x8499 $x7260 $x9287)))))))))))
(assert
 (let (($x5872 (= cell_8_7 9)))
 (let (($x7743 (= cell_8_7 8)))
 (let (($x2011 (= cell_8_7 7)))
 (let (($x306 (= cell_8_7 6)))
 (let (($x5507 (= cell_8_7 5)))
 (let (($x9633 (= cell_8_7 4)))
 (let (($x6451 (= cell_8_7 3)))
 (let (($x1892 (= cell_8_7 2)))
 (let (($x7622 (= cell_8_7 1)))
 (or $x7622 $x1892 $x6451 $x9633 $x5507 $x306 $x2011 $x7743 $x5872)))))))))))
(assert
 (let (($x9582 (= cell_9_7 9)))
 (let (($x9928 (= cell_9_7 8)))
 (let (($x6018 (= cell_9_7 7)))
 (let (($x6838 (= cell_9_7 6)))
 (let (($x2055 (= cell_9_7 5)))
 (let (($x5161 (= cell_9_7 4)))
 (let (($x4633 (= cell_9_7 3)))
 (let (($x4212 (= cell_9_7 2)))
 (let (($x5409 (= cell_9_7 1)))
 (or $x5409 $x4212 $x4633 $x5161 $x2055 $x6838 $x6018 $x9928 $x9582)))))))))))
(assert
 (let (($x3187 (= cell_1_8 9)))
 (let (($x6079 (= cell_1_8 8)))
 (let (($x3200 (= cell_1_8 7)))
 (let (($x6851 (= cell_1_8 6)))
 (let (($x4899 (= cell_1_8 5)))
 (let (($x1304 (= cell_1_8 4)))
 (let (($x3745 (= cell_1_8 3)))
 (let (($x2942 (= cell_1_8 2)))
 (let (($x2856 (= cell_1_8 1)))
 (or $x2856 $x2942 $x3745 $x1304 $x4899 $x6851 $x3200 $x6079 $x3187)))))))))))
(assert
 (let (($x4642 (= cell_2_8 9)))
 (let (($x5229 (= cell_2_8 8)))
 (let (($x4941 (= cell_2_8 7)))
 (let (($x8629 (= cell_2_8 6)))
 (let (($x5233 (= cell_2_8 5)))
 (let (($x3254 (= cell_2_8 4)))
 (let (($x2898 (= cell_2_8 3)))
 (let (($x9166 (= cell_2_8 2)))
 (let (($x4667 (= cell_2_8 1)))
 (or $x4667 $x9166 $x2898 $x3254 $x5233 $x8629 $x4941 $x5229 $x4642)))))))))))
(assert
 (let (($x6605 (= cell_3_8 9)))
 (let (($x2123 (= cell_3_8 8)))
 (let (($x4745 (= cell_3_8 7)))
 (let (($x2859 (= cell_3_8 6)))
 (let (($x63 (= cell_3_8 5)))
 (let (($x7765 (= cell_3_8 4)))
 (let (($x837 (= cell_3_8 3)))
 (let (($x5113 (= cell_3_8 2)))
 (let (($x376 (= cell_3_8 1)))
 (or $x376 $x5113 $x837 $x7765 $x63 $x2859 $x4745 $x2123 $x6605)))))))))))
(assert
 (let (($x6953 (= cell_4_8 9)))
 (let (($x3735 (= cell_4_8 8)))
 (let (($x6241 (= cell_4_8 7)))
 (let (($x1942 (= cell_4_8 6)))
 (let (($x1506 (= cell_4_8 5)))
 (let (($x8724 (= cell_4_8 4)))
 (let (($x2597 (= cell_4_8 3)))
 (let (($x695 (= cell_4_8 2)))
 (let (($x1885 (= cell_4_8 1)))
 (or $x1885 $x695 $x2597 $x8724 $x1506 $x1942 $x6241 $x3735 $x6953)))))))))))
(assert
 (let (($x2189 (= cell_5_8 9)))
 (let (($x287 (= cell_5_8 8)))
 (let (($x460 (= cell_5_8 7)))
 (let (($x2637 (= cell_5_8 6)))
 (let (($x8277 (= cell_5_8 5)))
 (let (($x8564 (= cell_5_8 4)))
 (let (($x6190 (= cell_5_8 3)))
 (let (($x6237 (= cell_5_8 2)))
 (let (($x6620 (= cell_5_8 1)))
 (or $x6620 $x6237 $x6190 $x8564 $x8277 $x2637 $x460 $x287 $x2189)))))))))))
(assert
 (let (($x2263 (= cell_6_8 9)))
 (let (($x7039 (= cell_6_8 8)))
 (let (($x1614 (= cell_6_8 7)))
 (let (($x6596 (= cell_6_8 6)))
 (let (($x5269 (= cell_6_8 5)))
 (let (($x1458 (= cell_6_8 4)))
 (let (($x6379 (= cell_6_8 3)))
 (let (($x6984 (= cell_6_8 2)))
 (let (($x9078 (= cell_6_8 1)))
 (or $x9078 $x6984 $x6379 $x1458 $x5269 $x6596 $x1614 $x7039 $x2263)))))))))))
(assert
 (let (($x2911 (= cell_7_8 9)))
 (let (($x2715 (= cell_7_8 8)))
 (let (($x5847 (= cell_7_8 7)))
 (let (($x7632 (= cell_7_8 6)))
 (let (($x5470 (= cell_7_8 5)))
 (let (($x4753 (= cell_7_8 4)))
 (let (($x6172 (= cell_7_8 3)))
 (let (($x438 (= cell_7_8 2)))
 (let (($x8076 (= cell_7_8 1)))
 (or $x8076 $x438 $x6172 $x4753 $x5470 $x7632 $x5847 $x2715 $x2911)))))))))))
(assert
 (let (($x10078 (= cell_8_8 9)))
 (let (($x1482 (= cell_8_8 8)))
 (let (($x417 (= cell_8_8 7)))
 (let (($x6599 (= cell_8_8 6)))
 (let (($x6318 (= cell_8_8 5)))
 (let (($x757 (= cell_8_8 4)))
 (let (($x3721 (= cell_8_8 3)))
 (let (($x971 (= cell_8_8 2)))
 (let (($x4431 (= cell_8_8 1)))
 (or $x4431 $x971 $x3721 $x757 $x6318 $x6599 $x417 $x1482 $x10078)))))))))))
(assert
 (let (($x9996 (= cell_9_8 9)))
 (let (($x5486 (= cell_9_8 8)))
 (let (($x7121 (= cell_9_8 7)))
 (let (($x7390 (= cell_9_8 6)))
 (let (($x3648 (= cell_9_8 5)))
 (let (($x6313 (= cell_9_8 4)))
 (let (($x9708 (= cell_9_8 3)))
 (let (($x3911 (= cell_9_8 2)))
 (let (($x4589 (= cell_9_8 1)))
 (or $x4589 $x3911 $x9708 $x6313 $x3648 $x7390 $x7121 $x5486 $x9996)))))))))))
(assert
 (let (($x650 (= cell_1_9 9)))
 (let (($x9310 (= cell_1_9 8)))
 (let (($x6750 (= cell_1_9 7)))
 (let (($x3541 (= cell_1_9 6)))
 (let (($x6578 (= cell_1_9 5)))
 (let (($x1239 (= cell_1_9 4)))
 (let (($x6631 (= cell_1_9 3)))
 (let (($x593 (= cell_1_9 2)))
 (let (($x50 (= cell_1_9 1)))
 (or $x50 $x593 $x6631 $x1239 $x6578 $x3541 $x6750 $x9310 $x650)))))))))))
(assert
 (let (($x1847 (= cell_2_9 9)))
 (let (($x1612 (= cell_2_9 8)))
 (let (($x3086 (= cell_2_9 7)))
 (let (($x8404 (= cell_2_9 6)))
 (let (($x4244 (= cell_2_9 5)))
 (let (($x9017 (= cell_2_9 4)))
 (let (($x1623 (= cell_2_9 3)))
 (let (($x3370 (= cell_2_9 2)))
 (let (($x3379 (= cell_2_9 1)))
 (or $x3379 $x3370 $x1623 $x9017 $x4244 $x8404 $x3086 $x1612 $x1847)))))))))))
(assert
 (let (($x9318 (= cell_3_9 9)))
 (let (($x2073 (= cell_3_9 8)))
 (let (($x5237 (= cell_3_9 7)))
 (let (($x175 (= cell_3_9 6)))
 (let (($x6616 (= cell_3_9 5)))
 (let (($x5217 (= cell_3_9 4)))
 (let (($x8582 (= cell_3_9 3)))
 (let (($x3413 (= cell_3_9 2)))
 (let (($x5623 (= cell_3_9 1)))
 (or $x5623 $x3413 $x8582 $x5217 $x6616 $x175 $x5237 $x2073 $x9318)))))))))))
(assert
 (let (($x2766 (= cell_4_9 9)))
 (let (($x1200 (= cell_4_9 8)))
 (let (($x8626 (= cell_4_9 7)))
 (let (($x6436 (= cell_4_9 6)))
 (let (($x7461 (= cell_4_9 5)))
 (let (($x7175 (= cell_4_9 4)))
 (let (($x6741 (= cell_4_9 3)))
 (let (($x1992 (= cell_4_9 2)))
 (let (($x6528 (= cell_4_9 1)))
 (or $x6528 $x1992 $x6741 $x7175 $x7461 $x6436 $x8626 $x1200 $x2766)))))))))))
(assert
 (let (($x6213 (= cell_5_9 9)))
 (let (($x9300 (= cell_5_9 8)))
 (let (($x9848 (= cell_5_9 7)))
 (let (($x4779 (= cell_5_9 6)))
 (let (($x7793 (= cell_5_9 5)))
 (let (($x2101 (= cell_5_9 4)))
 (let (($x8388 (= cell_5_9 3)))
 (let (($x9148 (= cell_5_9 2)))
 (let (($x6133 (= cell_5_9 1)))
 (or $x6133 $x9148 $x8388 $x2101 $x7793 $x4779 $x9848 $x9300 $x6213)))))))))))
(assert
 (let (($x4574 (= cell_6_9 9)))
 (let (($x5519 (= cell_6_9 8)))
 (let (($x1875 (= cell_6_9 7)))
 (let (($x6966 (= cell_6_9 6)))
 (let (($x1670 (= cell_6_9 5)))
 (let (($x247 (= cell_6_9 4)))
 (let (($x4752 (= cell_6_9 3)))
 (let (($x6339 (= cell_6_9 2)))
 (let (($x3763 (= cell_6_9 1)))
 (or $x3763 $x6339 $x4752 $x247 $x1670 $x6966 $x1875 $x5519 $x4574)))))))))))
(assert
 (let (($x9443 (= cell_7_9 9)))
 (let (($x595 (= cell_7_9 8)))
 (let (($x7362 (= cell_7_9 7)))
 (let (($x5434 (= cell_7_9 6)))
 (let (($x5492 (= cell_7_9 5)))
 (let (($x6055 (= cell_7_9 4)))
 (let (($x3419 (= cell_7_9 3)))
 (let (($x1018 (= cell_7_9 2)))
 (let (($x7159 (= cell_7_9 1)))
 (or $x7159 $x1018 $x3419 $x6055 $x5492 $x5434 $x7362 $x595 $x9443)))))))))))
(assert
 (let (($x7146 (= cell_8_9 9)))
 (let (($x9908 (= cell_8_9 8)))
 (let (($x1182 (= cell_8_9 7)))
 (let (($x7017 (= cell_8_9 6)))
 (let (($x3074 (= cell_8_9 5)))
 (let (($x3059 (= cell_8_9 4)))
 (let (($x6019 (= cell_8_9 3)))
 (let (($x7926 (= cell_8_9 2)))
 (let (($x1426 (= cell_8_9 1)))
 (or $x1426 $x7926 $x6019 $x3059 $x3074 $x7017 $x1182 $x9908 $x7146)))))))))))
(assert
 (let (($x491 (= cell_9_9 9)))
 (let (($x5357 (= cell_9_9 8)))
 (let (($x2327 (= cell_9_9 7)))
 (let (($x8958 (= cell_9_9 6)))
 (let (($x944 (= cell_9_9 5)))
 (let (($x2522 (= cell_9_9 4)))
 (let (($x6065 (= cell_9_9 3)))
 (let (($x3242 (= cell_9_9 2)))
 (let (($x1245 (= cell_9_9 1)))
 (or $x1245 $x3242 $x6065 $x2522 $x944 $x8958 $x2327 $x5357 $x491)))))))))))
(assert
 (and (distinct cell_1_1 cell_1_2 cell_1_3 cell_1_4 cell_1_5 cell_1_6 cell_1_7 cell_1_8 cell_1_9) true))
(assert
 (and (distinct cell_2_1 cell_2_2 cell_2_3 cell_2_4 cell_2_5 cell_2_6 cell_2_7 cell_2_8 cell_2_9) true))
(assert
 (and (distinct cell_3_1 cell_3_2 cell_3_3 cell_3_4 cell_3_5 cell_3_6 cell_3_7 cell_3_8 cell_3_9) true))
(assert
 (and (distinct cell_4_1 cell_4_2 cell_4_3 cell_4_4 cell_4_5 cell_4_6 cell_4_7 cell_4_8 cell_4_9) true))
(assert
 (and (distinct cell_5_1 cell_5_2 cell_5_3 cell_5_4 cell_5_5 cell_5_6 cell_5_7 cell_5_8 cell_5_9) true))
(assert
 (and (distinct cell_6_1 cell_6_2 cell_6_3 cell_6_4 cell_6_5 cell_6_6 cell_6_7 cell_6_8 cell_6_9) true))
(assert
 (and (distinct cell_7_1 cell_7_2 cell_7_3 cell_7_4 cell_7_5 cell_7_6 cell_7_7 cell_7_8 cell_7_9) true))
(assert
 (and (distinct cell_8_1 cell_8_2 cell_8_3 cell_8_4 cell_8_5 cell_8_6 cell_8_7 cell_8_8 cell_8_9) true))
(assert
 (and (distinct cell_9_1 cell_9_2 cell_9_3 cell_9_4 cell_9_5 cell_9_6 cell_9_7 cell_9_8 cell_9_9) true))
(assert
 (and (distinct cell_1_1 cell_2_1 cell_3_1 cell_4_1 cell_5_1 cell_6_1 cell_7_1 cell_8_1 cell_9_1) true))
(assert
 (and (distinct cell_1_2 cell_2_2 cell_3_2 cell_4_2 cell_5_2 cell_6_2 cell_7_2 cell_8_2 cell_9_2) true))
(assert
 (and (distinct cell_1_3 cell_2_3 cell_3_3 cell_4_3 cell_5_3 cell_6_3 cell_7_3 cell_8_3 cell_9_3) true))
(assert
 (and (distinct cell_1_4 cell_2_4 cell_3_4 cell_4_4 cell_5_4 cell_6_4 cell_7_4 cell_8_4 cell_9_4) true))
(assert
 (and (distinct cell_1_5 cell_2_5 cell_3_5 cell_4_5 cell_5_5 cell_6_5 cell_7_5 cell_8_5 cell_9_5) true))
(assert
 (and (distinct cell_1_6 cell_2_6 cell_3_6 cell_4_6 cell_5_6 cell_6_6 cell_7_6 cell_8_6 cell_9_6) true))
(assert
 (and (distinct cell_1_7 cell_2_7 cell_3_7 cell_4_7 cell_5_7 cell_6_7 cell_7_7 cell_8_7 cell_9_7) true))
(assert
 (and (distinct cell_1_8 cell_2_8 cell_3_8 cell_4_8 cell_5_8 cell_6_8 cell_7_8 cell_8_8 cell_9_8) true))
(assert
 (and (distinct cell_1_9 cell_2_9 cell_3_9 cell_4_9 cell_5_9 cell_6_9 cell_7_9 cell_8_9 cell_9_9) true))
(assert
 (and (distinct cell_1_1 cell_1_2 cell_1_3 cell_2_1 cell_2_2 cell_2_3 cell_3_1 cell_3_2 cell_3_3) true))
(assert
 (and (distinct cell_1_4 cell_1_5 cell_1_6 cell_2_4 cell_2_5 cell_2_6 cell_3_4 cell_3_5 cell_3_6) true))
(assert
 (and (distinct cell_1_7 cell_1_8 cell_1_9 cell_2_7 cell_2_8 cell_2_9 cell_3_7 cell_3_8 cell_3_9) true))
(assert
 (and (distinct cell_4_1 cell_4_2 cell_4_3 cell_5_1 cell_5_2 cell_5_3 cell_6_1 cell_6_2 cell_6_3) true))
(assert
 (and (distinct cell_4_4 cell_4_5 cell_4_6 cell_5_4 cell_5_5 cell_5_6 cell_6_4 cell_6_5 cell_6_6) true))
(assert
 (and (distinct cell_4_7 cell_4_8 cell_4_9 cell_5_7 cell_5_8 cell_5_9 cell_6_7 cell_6_8 cell_6_9) true))
(assert
 (and (distinct cell_7_1 cell_7_2 cell_7_3 cell_8_1 cell_8_2 cell_8_3 cell_9_1 cell_9_2 cell_9_3) true))
(assert
 (and (distinct cell_7_4 cell_7_5 cell_7_6 cell_8_4 cell_8_5 cell_8_6 cell_9_4 cell_9_5 cell_9_6) true))
(assert
 (and (distinct cell_7_7 cell_7_8 cell_7_9 cell_8_7 cell_8_8 cell_8_9 cell_9_7 cell_9_8 cell_9_9) true))
(assert
 (let (($x582 (and (distinct cell_5_9 cell_6_8 cell_7_7 cell_8_6) true)))
 (let (($x6738 (and (distinct cell_2_9 cell_3_8 cell_4_7 cell_5_6 cell_6_5 cell_7_4 cell_8_3 cell_9_2) true)))
 (let (($x4930 (and (distinct cell_1_8 cell_2_7 cell_3_6 cell_4_5 cell_5_4 cell_6_3 cell_7_2 cell_8_1) true)))
 (let (($x1517 (and (distinct cell_1_5 cell_2_4 cell_3_3 cell_4_2) true)))
 (let (($x897 (and (distinct cell_5_1 cell_6_2 cell_7_3 cell_8_4) true)))
 (let (($x7733 (and (distinct cell_2_1 cell_3_2 cell_4_3 cell_5_4 cell_6_5 cell_7_6 cell_8_7 cell_9_8) true)))
 (let (($x4486 (and (distinct cell_1_2 cell_2_3 cell_3_4 cell_4_5 cell_5_6 cell_6_7 cell_7_8 cell_8_9) true)))
 (let (($x1952 (and (distinct cell_1_5 cell_2_6 cell_3_7 cell_4_8) true)))
 (and $x1952 $x4486 $x7733 $x897 $x1517 $x4930 $x6738 $x582))))))))))
(assert
 (= cell_1_8 1))
(assert
 (= cell_2_5 1))
(assert
 (= cell_3_3 1))
(assert
 (= cell_4_6 1))
(assert
 (= cell_5_7 1))
(assert
 (= cell_6_1 1))
(assert
 (= cell_7_4 1))
(assert
 (= cell_8_2 1))
(assert
 (= cell_9_9 1))
(assert
 (= cell_1_5 2))
(assert
 (= cell_2_2 2))
(assert
 (= cell_3_8 2))
(assert
 (= cell_4_1 2))
(assert
 (= cell_5_4 2))
(assert
 (= cell_6_7 2))
(assert
 (= cell_7_9 2))
(assert
 (= cell_8_6 2))
(assert
 (= cell_9_3 2))
(assert
 (= cell_1_2 3))
(check-sat)

